p cnf 10 50
10 -4 5 0
-3 -8 5 0
-1 -6 -3 0
-9 10 -3 0
10 -8 -4 0
-3 -10 7 0
1 -2 4 0
8 2 3 0
-3 10 -7 0
6 4 -8 0
-1 -3 -10 0
2 -7 -4 0
1 7 -8 0
9 -8 5 0
6 10 5 0
6 -5 -7 0
-1 -10 6 0
3 5 1 0
2 8 -3 0
-5 2 -8 0
-7 10 -9 0
-7 -9 3 0
10 6 -1 0
-5 -2 -4 0
-9 3 10 0
3 -7 -5 0
2 6 9 0
-1 10 -4 0
6 8 -7 0
-7 9 -3 0
9 1 -6 0
-7 -3 -9 0
7 -1 2 0
7 -1 5 0
-7 -9 -1 0
8 5 4 0
-7 8 4 0
-8 -6 9 0
10 -9 -7 0
-8 7 3 0
8 -5 -1 0
3 -4 5 0
2 -6 -5 0
-8 -3 -1 0
10 5 -4 0
5 4 -6 0
-5 3 4 0
-4 -3 -9 0
-5 7 6 0
6 -9 3 0